(set-logic QF_BV)
(declare-fun _substvar_8671_ () (_ BitVec 8))
(declare-fun _substvar_7760_ () (_ BitVec 32))
(declare-fun _substvar_8709_ () (_ BitVec 32))
(declare-fun _substvar_7165_ () (_ BitVec 32))
(declare-fun _substvar_7702_ () (_ BitVec 32))
(declare-fun _substvar_6928_ () (_ BitVec 8))
(declare-fun _substvar_6482_ () (_ BitVec 32))
(declare-fun _substvar_7768_ () (_ BitVec 32))
(declare-fun _substvar_7464_ () (_ BitVec 32))
(declare-fun _substvar_7404_ () (_ BitVec 32))
(assert (let ((?v_177 (bvsub _substvar_7760_ (_ bv512 32))) (?v_343 (bvadd _substvar_7404_ (_ bv2052 32)))) (let ((?v_291 (bvadd ?v_343 (_ bv19008 32)))) (let ( (?v_364 (bvadd _substvar_7404_ (_ bv0 32)))) (let ( (?v_289 (bvsub _substvar_7760_ (_ bv0 32)))) (let ( (?v_311 (bvadd _substvar_8709_ (_ bv4294967292 32)))) (let ((?v_322 (bvadd _substvar_7768_ (_ bv0 32)))) (let ((?v_321 (bvadd ?v_322 (bvadd _substvar_6482_ (_ bv8 32))))) (let ((?v_320 (bvadd ?v_321 (_ bv0 32)))) (let ((?v_319 (bvadd ?v_320 (bvadd _substvar_7702_ (_ bv8 32))))) (and true true true true true true true true true true true (= _substvar_8709_ (bvor (bvor (_ bv0 32) ((_ zero_extend 24) _substvar_8671_)) (_ bv0 32))) true true true true true true true true true true true true true true true true true true (= _substvar_6482_ (bvor _substvar_7464_ ((_ zero_extend 24) _substvar_6928_))) true true true true true true true true true true true true true true true true true true true true true true true true true true true true true true true true true true true true true true true true true true true true true true true true true true true true true true true true true true true true true true true true true true true true true true true true true true true true true true true true true true true true true true true true true true true true true true true true true true true true true true true true true true true true true true true true true true true true true true true true true true true true true true true true true true true true true true true true true true true true true true true true true true true true true true true true true true true true true true true true true true true true true true true true true true true true true true true true true true true true true true true true true true true true true true true true true true true true true true true true true true true true true true true true true true true true true true true true true true true true true true true true true true true true true true true true true true true true true true true true true true true true true true true true true true true true true true true true true true true true true true true true true true true true true true true true true true true true true true true true true true true true true true true true true true true true true true true true true true true true true true true true true true true true true true true true true true true true true true true true true true true true true true true true true true true true true true true true true true true true true true true true true true true true true true true true true true true true true true true true true true true true true true true true true true true true true true true true true true true true true true true true true true true true true true true true true true true true true true true true true true true true true true true true true true true true true true true true true true true true true true true true true true true true true true true true true true true true true true true true true true true true true true true true true true true true true true true true true true true true true true true true true true true true true true true true true true true true true true true true true true true true true true true true true true true true true true true true true true true true true true true true true true true true true true true true true true true true true true true true true true true true true true true true true true true true true true true true true true true true true true true true true true true true true true true true true true true true true true true true true true true true true true true true true true true true true true true true true true true true true true true true true true true true true true true true true true true true true true true true true true true true true true true true true true true true true true true true true true true true true true true true true true true true true true true true true true true true true true true true true true true true true true true true true true true true true true true true true true true true true true true true true (bvule ?v_291 (_ bv573440 32)) true true true true true true true true true true true true true true true true true true true true true true true true true true true true true (bvule _substvar_7702_ (_ bv1073741823 32)) true true true true true true true (bvule _substvar_6482_ (_ bv1073741823 32)) true true true true true true true true true true true true true true true true true true true true true true true true true true true true true true true true true true true true true true (bvule ?v_319 ?v_311) true true true (bvule _substvar_7768_ ?v_311) true true true true true true true true true true true true true true true true true true true true true true true true true true true true true true true true true true true true true true true true true true true (bvule ?v_177 ?v_343) true (= (_ bv37888 32) ?v_289) true true true true true true true true true true true true true true true true true true true true true true true true true true true true true true true true true true (bvule ?v_364 (bvadd (bvadd (_ bv0 32) _substvar_7165_) (_ bv2048 32))) (bvule _substvar_7165_ (bvadd (bvadd _substvar_7702_ (_ bv0 32)) (_ bv2048 32))) true true true true true true true true true true true true (bvule (_ bv4 32) _substvar_8709_) true true true true true true true true true true true true true true true true true true true true true true true true true true true true true true true true true true true true true true true true true true true true true true true true true true true true true true true true true true true true true true true true true true true true true true true true true true true true true true true true true true true true true true true true true true true true true true true true true true true true true true true true true true true true true true true true true true true true true true true true true true true true true true true true true true true true true true true true true true true true true true true true true true true true true true true true true true true true true true true true true true true true true true true true true true true true true true true true true true true true true true true true true true true true true true true true true true true true true true true true true true true true true true true true true true true true true true true true true true true true true true true true true true true true true true true true true true true true true true true true true true true true true true true true true true true true true true true true true true true true true true true true true true true true true true true true true)))))))))))
(check-sat)
(exit)
